15	10	6				
0	1	J1				
1	2	J1				
3	4	J2				
4	5	J2				
6	7	J3				
7	8	J3				
9	10	J4				
10	11	J4				
12	13	J5				
13	14	J5				
3	0	147	1	123	2	145
2	3	140	1	130		
2	3	150	4	160		
2	0	214	2	150		
2	2	87	1	66		
2	4	178	5	95		
2	0	87	1	62		
2	2	180	3	105		
3	3	190	4	100	5	153
2	0	87	1	65		
1	4	173				
2	3	145	5	136		
3	1	123	2	145	0	128
3	2	86	3	65	4	47
2	4	110	5	85		
0	16	35	32	19	25
16	0	24	29	33	15
35	24	0	13	34	24
32	29	13	0	32	13
19	33	34	32	0	24
25	15	24	13	24	0
